(set-info :smt-lib-version 2.6)
(set-logic QF_NIA)
(set-info :source |AProve team, see http://aprove.informatik.rwth-aachen.de/, submitted for SMT-COMP 2014|)
(set-info :category "industrial")
(set-info :status unsat)
(declare-fun b__60 () Int)
(declare-fun a__7 () Int)
(declare-fun a__9 () Int)
(declare-fun a__10 () Int)
(declare-fun b__61 () Int)
(declare-fun a__8 () Int)
(declare-fun b__62 () Int)
(declare-fun a__17 () Int)
(declare-fun a__5 () Int)
(declare-fun a__43 () Int)
(declare-fun b__63 () Int)
(declare-fun a__2 () Int)
(declare-fun a__44 () Int)
(declare-fun b__64 () Int)
(declare-fun a__4 () Int)
(declare-fun a__16 () Int)
(declare-fun a__11 () Int)
(declare-fun a__3 () Int)
(declare-fun a__12 () Int)
(declare-fun a__19 () Int)
(declare-fun a__21 () Int)
(declare-fun a__23 () Int)
(declare-fun a__13 () Int)
(declare-fun a__14 () Int)
(declare-fun a__26 () Int)
(declare-fun a__27 () Int)
(declare-fun a__28 () Int)
(declare-fun a__29 () Int)
(declare-fun a__30 () Int)
(declare-fun a__31 () Int)
(declare-fun a__32 () Int)
(declare-fun a__34 () Int)
(declare-fun a__35 () Int)
(declare-fun a__36 () Int)
(declare-fun a__37 () Int)
(declare-fun a__38 () Int)
(declare-fun a__39 () Int)
(declare-fun a__41 () Int)
(declare-fun a__45 () Int)
(declare-fun a__48 () Int)
(declare-fun a__49 () Int)
(declare-fun a__50 () Int)
(declare-fun a__51 () Int)
(declare-fun a__52 () Int)
(declare-fun a__54 () Int)
(declare-fun a__55 () Int)
(declare-fun a__15 () Int)
(declare-fun a__57 () Int)
(declare-fun a__46 () Int)
(declare-fun a__58 () Int)
(declare-fun a__24 () Int)
(declare-fun a__59 () Int)
(declare-fun a__18 () Int)
(declare-fun a__56 () Int)
(declare-fun a__42 () Int)
(declare-fun a__40 () Int)
(declare-fun a__53 () Int)
(declare-fun a__1 () Int)
(declare-fun a__6 () Int)
(declare-fun a__20 () Int)
(declare-fun a__22 () Int)
(declare-fun a__25 () Int)
(declare-fun a__33 () Int)
(declare-fun a__47 () Int)
(assert (and (>= (+ 1 (* (- 0 1) b__60)) 0) (= (+ (* b__60 a__7) (* (- 0 1) a__7)) 0) (= (+ (* b__60 a__9) (* (- 0 1) a__9)) 0) (= (+ (* b__60 a__10) (* (- 0 1) a__10)) 0) (>= (+ 1 (* (- 0 1) b__61)) 0) (= (+ (* b__61 a__8) (* (- 0 1) a__8)) 0) (>= (+ 1 (* (- 0 1) b__62)) 0) (= (+ (* b__62 a__9 a__17) (* (- 0 1) (* a__9 a__17))) 0) (= (+ (* b__62 a__5 a__43) (* (- 0 1) (* a__5 a__43))) 0) (>= (+ 1 (* (- 0 1) b__63)) 0) (= (+ (* b__63 a__2) (* (- 0 1) a__2)) 0) (= (+ (* b__63 a__10 a__17) (* (- 0 1) (* a__10 a__17))) 0) (= (+ (* b__63 a__5 a__44) (* (- 0 1) (* a__5 a__44))) 0) (>= (+ 1 (* (- 0 1) b__64)) 0) (= (+ (* b__64 a__4) (* (- 0 1) a__4)) 0) (>= (+ a__2 (* (- 0 1) (* a__16 a__7)) (* (- 0 1) (* a__16 a__9)) (* (- 0 1) a__11)) 0) (>= (+ a__3 (* (- 0 1) (* a__17 a__7)) (* (- 0 1) (* a__16 a__10)) (* (- 0 1) a__12)) 0) (>= (+ a__4 (* (- 0 1) (* a__19 a__8)) (* (- 0 1) (* a__21 a__17 a__9)) (* (- 0 1) (* a__23 a__17 a__10)) (* (- 0 1) a__13)) 0) (>= (+ a__5 (* (- 0 1) a__14)) 0) (>= (+ a__8 (* (- 0 1) a__26)) 0) (>= (+ a__9 (* (- 0 1) a__27)) 0) (>= (+ a__10 (* (- 0 1) a__28)) 0) (>= (+ a__11 (* (- 0 1) a__29)) 0) (>= (+ a__12 (* (- 0 1) a__30)) 0) (>= (+ a__13 (* (- 0 1) a__31)) 0) (>= (+ a__14 (* (- 0 1) a__32)) 0) (>= (+ a__27 (* (- 0 1) a__34)) 0) (>= (+ a__28 (* (- 0 1) a__35)) 0) (>= (+ a__29 (* (- 0 1) a__36)) 0) (>= (+ a__30 (* (- 0 1) a__37)) 0) (>= (+ a__31 (* (- 0 1) a__38)) 0) (>= (+ a__32 (* (- 0 1) a__39)) 0) (>= (+ a__36 (* (- 0 1) a__2)) 0) (>= (+ a__37 (* (- 0 1) a__3)) 0) (>= (+ a__38 (* (- 0 1) (* a__41 a__4)) (* (- 0 1) (* a__21 a__43 a__5)) (* (- 0 1) (* a__23 a__44 a__5))) 0) (>= (+ a__39 (* (- 0 1) (* a__45 a__5))) 0) (>= (+ a__35 (* (- 0 1) a__48)) 0) (>= (+ a__36 (* (- 0 1) a__49)) 0) (>= (+ a__37 (* (- 0 1) a__50)) 0) (>= (+ a__38 (* (- 0 1) a__51)) 0) (>= (+ a__39 (* (- 0 1) a__52)) 0) (>= (+ a__49 (* (- 0 1) a__2)) 0) (>= (+ a__50 (* (- 0 1) a__3)) 0) (>= (+ a__51 (* (- 0 1) (* a__41 a__4))) 0) (>= (+ a__52 (* (- 0 1) a__5)) 0) (>= (+ a__51 (* (- 0 1) (* a__23 a__2)) (* (- 0 1) (* a__41 a__54 a__4))) 0) (>= (+ a__52 (* (- 0 1) (* a__55 a__4))) 0) (>= (+ (* b__60 a__15) (* b__60 a__57 a__16) (* b__60 a__57 a__17) (* (- 0 1) (* b__60 a__46))) 0) (>= (+ (* b__60 a__15) (* b__60 a__57 a__16) (* b__60 a__58 a__17) (* (- 0 1) (* b__60 a__24))) 0) (>= (+ (* b__60 a__15) (* b__60 a__58 a__16) (* b__60 a__57 a__17) (* (- 0 1) (* b__60 a__24))) 0) (>= (+ (* b__60 a__59 a__16) (* (- 0 1) (* b__60 a__16))) 0) (>= (+ (* b__60 a__59 a__17) (* (- 0 1) (* b__60 a__17))) 0) (>= (+ (* b__61 a__18) (* b__61 a__56 a__19) (* (- 0 1) (* b__61 a__46))) 0) (>= (+ (* b__61 a__18) (* b__61 a__42 a__19) (* (- 0 1) (* b__61 a__24))) 0) (>= (+ (* b__62 a__43 a__21) (* (- 0 1) b__62)) 0) (>= (+ (* b__63 a__44 a__23) (* (- 0 1) b__63)) 0) (>= (+ (* b__64 a__45 a__41) (* (- 0 1) b__64)) 0) (>= (+ (* b__64 a__40) (* b__64 a__56 a__41) (* (- 0 1) (* b__64 a__56))) 0) (>= (+ (* b__64 a__55) (* (- 0 1) b__64)) 0) (>= (+ (* b__64 a__53) (* b__64 a__42 a__54) (* (- 0 1) (* b__64 a__42)) (* (- 0 1) (* b__64 a__53 a__45))) 0) (>= (+ (* b__64 a__43 a__54) (* (- 0 1) (* b__64 a__43))) 0) (>= (+ (* b__64 a__44 a__54) (* (- 0 1) (* b__64 a__44))) 0) (>= (+ (* b__64 a__55) (* (- 0 1) (* b__64 a__55 a__45))) 0) (>= (+ a__1 (* (- 0 1) a__6) (* (- 0 1) (* a__15 a__7)) (* (- 0 1) (* a__18 a__8)) (* (- 0 1) (* a__15 a__9)) (* (- 0 1) (* a__20 a__17 a__9)) (* (- 0 1) (* a__15 a__10)) (* (- 0 1) (* a__22 a__17 a__10))) 0) (>= (+ a__6 (* a__24 a__7) (* (- 0 1) a__25)) 0) (>= (+ a__25 (* a__24 a__26) (* (- 0 1) a__33)) 0) (>= (+ a__33 (* a__24 a__34) (* (- 0 1) a__1) (* (- 0 1) (* a__40 a__4)) (* (- 0 1) (* a__42 a__5)) (* (- 0 1) (* a__20 a__43 a__5)) (* (- 0 1) (* a__22 a__44 a__5))) 0) (>= (+ a__33 (* a__46 a__34) (* (- 0 1) a__47)) 0) (>= (+ a__47 (* a__24 a__48) (* (- 0 1) a__1) (* (- 0 1) (* a__40 a__4))) 0) (>= (+ a__47 (* a__24 a__48) (* (- 0 1) a__1) (* (- 0 1) (* a__22 a__2)) (* (- 0 1) (* a__53 a__4)) (* (- 0 1) (* a__40 a__54 a__4)) (* (- 0 1) (* a__56 a__5))) 0) (not (and (= (+ a__1 (* (- 0 1) a__6) (* (- 0 1) (* a__15 a__7)) (* (- 0 1) (* a__18 a__8)) (* (- 0 1) (* a__15 a__9)) (* (- 0 1) (* a__20 a__17 a__9)) (* (- 0 1) (* a__15 a__10)) (* (- 0 1) (* a__22 a__17 a__10))) 0) (= (+ a__6 (* a__24 a__7) (* (- 0 1) a__25)) 0) (= (+ a__25 (* a__24 a__26) (* (- 0 1) a__33)) 0) (= (+ a__33 (* a__24 a__34) (* (- 0 1) a__1) (* (- 0 1) (* a__40 a__4)) (* (- 0 1) (* a__42 a__5)) (* (- 0 1) (* a__20 a__43 a__5)) (* (- 0 1) (* a__22 a__44 a__5))) 0) (= (+ a__33 (* a__46 a__34) (* (- 0 1) a__47)) 0) (= (+ a__47 (* a__24 a__48) (* (- 0 1) a__1) (* (- 0 1) (* a__40 a__4))) 0) (= (+ a__47 (* a__24 a__48) (* (- 0 1) a__1) (* (- 0 1) (* a__22 a__2)) (* (- 0 1) (* a__53 a__4)) (* (- 0 1) (* a__40 a__54 a__4)) (* (- 0 1) (* a__56 a__5))) 0))) (>= b__60 0) (>= 1 b__60) (>= a__7 0) (>= a__9 0) (>= a__10 0) (>= b__61 0) (>= 1 b__61) (>= a__8 0) (>= b__62 0) (>= 1 b__62) (>= a__17 0) (>= a__5 0) (>= a__43 0) (>= b__63 0) (>= 1 b__63) (>= a__2 0) (>= a__44 0) (>= b__64 0) (>= 1 b__64) (>= a__4 0) (>= a__16 0) (>= a__11 0) (>= a__3 0) (>= a__12 0) (>= a__19 0) (>= a__21 0) (>= a__23 0) (>= a__13 0) (>= a__14 0) (>= a__26 0) (>= a__27 0) (>= a__28 0) (>= a__29 0) (>= a__30 0) (>= a__31 0) (>= a__32 0) (>= a__34 0) (>= a__35 0) (>= a__36 0) (>= a__37 0) (>= a__38 0) (>= a__39 0) (>= a__41 0) (>= a__45 0) (>= a__48 0) (>= a__49 0) (>= a__50 0) (>= a__51 0) (>= a__52 0) (>= a__54 0) (>= a__55 0) (>= a__15 0) (>= a__57 0) (>= a__46 0) (>= a__58 0) (>= a__24 0) (>= a__59 0) (>= a__18 0) (>= a__56 0) (>= a__42 0) (>= a__40 0) (>= a__53 0) (>= a__1 0) (>= a__6 0) (>= a__20 0) (>= a__22 0) (>= a__25 0) (>= a__33 0) (>= a__47 0)))
(assert (<= a__1 100))
(assert (<= a__10 100))
(assert (<= a__11 100))
(assert (<= a__12 100))
(assert (<= a__13 100))
(assert (<= a__14 100))
(assert (<= a__15 100))
(assert (<= a__16 100))
(assert (<= a__17 100))
(assert (<= a__18 100))
(assert (<= a__19 100))
(assert (<= a__2 100))
(assert (<= a__20 100))
(assert (<= a__21 100))
(assert (<= a__22 100))
(assert (<= a__23 100))
(assert (<= a__24 100))
(assert (<= a__25 100))
(assert (<= a__26 100))
(assert (<= a__27 100))
(assert (<= a__28 100))
(assert (<= a__29 100))
(assert (<= a__3 100))
(assert (<= a__30 100))
(assert (<= a__31 100))
(assert (<= a__32 100))
(assert (<= a__33 100))
(assert (<= a__34 100))
(assert (<= a__35 100))
(assert (<= a__36 100))
(assert (<= a__37 100))
(assert (<= a__38 100))
(assert (<= a__39 100))
(assert (<= a__4 100))
(assert (<= a__40 100))
(assert (<= a__41 100))
(assert (<= a__42 100))
(assert (<= a__43 100))
(assert (<= a__44 100))
(assert (<= a__45 100))
(assert (<= a__46 100))
(assert (<= a__47 100))
(assert (<= a__48 100))
(assert (<= a__49 100))
(assert (<= a__5 100))
(assert (<= a__50 100))
(assert (<= a__51 100))
(assert (<= a__52 100))
(assert (<= a__53 100))
(assert (<= a__54 100))
(assert (<= a__55 100))
(assert (<= a__56 100))
(assert (<= a__57 100))
(assert (<= a__58 100))
(assert (<= a__59 100))
(assert (<= a__6 100))
(assert (<= a__7 100))
(assert (<= a__8 100))
(assert (<= a__9 100))
(check-sat)
;;(get-assignment)
;;(get-model)
(exit)
